NAME : LR2_6_5
TYPE : PDPTW
DIMENSION : 150
EDGE_WEIGHT_TYPE : EXACT_2D
NODE_COORD_SECTION
1 1 0
2 150 0
3 0 0
4 -15 4210
5 0 2
6 1317 1557
7 3 284
8 3124 10
9 38 139
10 10 217
11 178 19
12 0 323
13 -16 1787
14 0 7
15 2822 3062
16 8 175
17 3127 10
18 45 115
19 10 142
20 203 -23
21 312 0
22 18 2981
23 85 12
24 808 1048
25 13 274
26 2257 10
27 232 121
28 10 315
29 83 22
30 0 597
31 33 608
32 91 17
33 1696 1936
34 18 61
35 1514 10
36 80 35
37 10 285
38 135 -17
39 481 0
40 2 622
41 502 22
42 2000 2240
43 23 102
44 333 10
45 276 28
46 10 0
47 179 -46
48 27 0
49 23 488
50 357 27
51 2436 2676
52 28 61
53 2752 10
54 283 144
55 10 0
56 232 -16
57 320 0
58 -19 2362
59 0 32
60 2227 2467
61 33 176
62 2619 10
63 117 168
64 10 0
65 102 29
66 0 402
67 10 1582
68 386 37
69 2623 2863
70 38 29
71 3184 10
72 136 241
73 10 136
74 42 17
75 0 311
76 -35 1706
77 0 42
78 2291 2531
79 43 136
80 2557 10
81 230 80
82 10 536
83 172 -21
84 530 0
85 -27 927
86 0 47
87 2685 2925
88 48 72
89 2917 10
90 57 125
91 10 0
92 47 6
93 0 548
94 -26 2733
95 0 52
96 2472 2712
97 53 220
98 2664 10
99 191 234
100 10 0
101 40 -19
102 264 0
103 -25 1420
104 0 57
105 341 581
106 58 272
107 1617 10
108 56 116
109 10 532
110 93 39
111 0 143
112 24 3491
113 232 62
114 2695 2935
115 63 208
116 1402 10
117 285 283
118 10 520
119 37 -14
120 2 0
121 19 93
122 121 67
123 423 663
124 68 37
125 646 10
126 201 175
127 10 0
128 155 11
129 0 599
130 -6 3578
131 0 72
132 2612 2852
133 73 279
134 2951 10
135 46 155
136 10 496
137 178 -37
138 22 0
139 19 486
140 580 77
141 2544 2784
142 78 268
143 3551 10
144 207 149
145 10 419
146 123 4
147 0 131
148 16 2667
149 258 82
150 236 476
PICKUP_AND_DELIVERY_SECTION
1 0 0 0 0 0 0
2 0 0 0 0 4823 0
3 0 0 0 0 0 133
4 0 0 0 0 10 10
5 0 0 0 0 41 41
6 0 0 0 0 0 0
7 0 0 0 0 -30 -30
8 0 0 0 0 0 0
9 0 0 0 0 1288 1288
10 0 0 0 0 5 0
11 0 0 0 0 3244 3244
12 0 0 0 0 241 241
13 0 0 0 0 10 10
14 0 0 0 0 221 221
15 0 0 0 0 418 418
16 0 0 0 0 -10 -10
17 0 0 0 0 0 0
18 0 0 0 0 807 807
19 0 0 0 0 10 0
20 0 0 0 0 2343 2343
21 0 0 0 0 178 178
22 0 0 0 0 10 10
23 0 0 0 0 2 2
24 0 0 0 0 0 0
25 0 0 0 0 -19 -19
26 0 0 0 0 0 0
27 0 0 0 0 2249 2249
28 0 0 0 0 15 0
29 0 0 0 0 966 966
30 0 0 0 0 275 275
31 0 0 0 0 10 10
32 0 0 0 0 211 211
33 0 0 0 0 0 0
34 0 0 0 0 7 7
35 0 0 0 0 133 0
36 0 0 0 0 2000 2000
37 0 0 0 0 20 0
38 0 0 0 0 3781 3781
39 0 0 0 0 60 60
40 0 0 0 0 10 10
41 0 0 0 0 127 127
42 0 0 0 0 0 0
43 0 0 0 0 15 15
44 0 0 0 0 1 0
45 0 0 0 0 991 991
46 0 0 0 0 25 25
47 0 0 0 0 3505 3505
48 0 0 0 0 289 289
49 0 0 0 0 10 10
50 0 0 0 0 134 134
51 0 0 0 0 0 0
52 0 0 0 0 -24 -24
53 0 0 0 0 0 0
54 0 0 0 0 413 413
55 0 0 0 0 30 30
56 0 0 0 0 3912 3912
57 0 0 0 0 120 120
58 0 0 0 0 10 10
59 0 0 0 0 64 64
60 0 0 0 0 592 592
61 0 0 0 0 -25 -25
62 0 0 0 0 0 0
63 0 0 0 0 37 37
64 0 0 0 0 35 35
65 0 0 0 0 4371 4371
66 0 0 0 0 157 157
67 0 0 0 0 10 10
68 0 0 0 0 3 3
69 0 0 0 0 134 134
70 0 0 0 0 24 24
71 0 0 0 0 109 0
72 0 0 0 0 1426 1426
73 0 0 0 0 40 0
74 0 0 0 0 1190 1190
75 0 0 0 0 183 183
76 0 0 0 0 10 10
77 0 0 0 0 299 299
78 0 0 0 0 118 118
79 0 0 0 0 -12 -12
80 0 0 0 0 0 0
81 0 0 0 0 3224 3224
82 0 0 0 0 45 0
83 0 0 0 0 3177 3177
84 0 0 0 0 136 136
85 0 0 0 0 10 10
86 0 0 0 0 200 200
87 0 0 0 0 353 353
88 0 0 0 0 -12 -12
89 0 0 0 0 0 0
90 0 0 0 0 783 783
91 0 0 0 0 50 50
92 0 0 0 0 593 593
93 0 0 0 0 262 262
94 0 0 0 0 10 10
95 0 0 0 0 250 250
96 0 0 0 0 0 0
97 0 0 0 0 38 38
98 0 0 0 0 374 0
99 0 0 0 0 254 254
100 0 0 0 0 55 55
101 0 0 0 0 3598 3598
102 0 0 0 0 227 227
103 0 0 0 0 10 10
104 0 0 0 0 141 141
105 0 0 0 0 0 0
106 0 0 0 0 8 8
107 0 0 0 0 270 0
108 0 0 0 0 859 859
109 0 0 0 0 60 0
110 0 0 0 0 2082 2082
111 0 0 0 0 120 120
112 0 0 0 0 10 10
113 0 0 0 0 119 119
114 0 0 0 0 0 0
115 0 0 0 0 16 16
116 0 0 0 0 6 0
117 0 0 0 0 2154 2154
118 0 0 0 0 65 0
119 0 0 0 0 3445 3445
120 0 0 0 0 180 180
121 0 0 0 0 10 10
122 0 0 0 0 139 139
123 0 0 0 0 0 0
124 0 0 0 0 7 7
125 0 0 0 0 268 0
126 0 0 0 0 2711 2711
127 0 0 0 0 70 70
128 0 0 0 0 262 262
129 0 0 0 0 94 94
130 0 0 0 0 10 10
131 0 0 0 0 135 135
132 0 0 0 0 168 168
133 0 0 0 0 -18 -18
134 0 0 0 0 0 0
135 0 0 0 0 2961 2961
136 0 0 0 0 75 0
137 0 0 0 0 3252 3252
138 0 0 0 0 15 15
139 0 0 0 0 10 10
140 0 0 0 0 146 146
141 0 0 0 0 361 361
142 0 0 0 0 22 22
143 0 0 0 0 359 0
144 0 0 0 0 1329 1329
145 0 0 0 0 80 0
146 0 0 0 0 279 279
147 0 0 0 0 103 103
148 0 0 0 0 10 10
149 0 0 0 0 235 235
150 0 0 0 0 547 547
DEPOT_SECTION
1 
-1
EOF
